50
117 449
501 226
507 465
412 75
399 550
339 454
217 236
171 90
495 136
653 553
506 535
306 263
536 201
765 432
555 593
593 372
678 154
537 371
517 256
233 231
365 52
755 252
533 270
238 187
314 96
297 478
157 561
482 464
481 340
43 74
614 166
556 426
87 193
562 62
91 240
726 381
199 503
32 284
454 328
524 433
791 399
593 260
303 336
354 261
585 492
28 89
523 231
86 550
463 324
139 437
